16161.42,43.09,48.95
14777.84,47.12,53.53
14099.76,49.39,56.11
15756.17,44.2,50.21
14323.97,48.62,55.23
14363.27,48.48,55.08
14339.98,48.56,55.17
14081.07,49.46,56.18
13869.06,50.21,57.04
13613.54,51.15,58.11
15238.66,45.7,51.92
13185.01,52.82,60.0
15147.91,45.97,52.23
14956.23,46.56,52.9
14605.18,47.68,54.17
13178.32,52.84,60.03
14661.48,47.5,53.96
15620.04,44.58,50.65
15780.07,44.13,50.13
15772.22,44.15,50.16
